%%% static parameters %%%
timespan = 1;
Clients_N = [500];
Demand_W = [15];
Lt0 = [4];
Lt1 = [4];
SS_ = [0.85];
DS_D = [20];
K = [200];
MA = [500];
HC = [0.05];
%%% dynamic parameters %%%
lost_ratio_sales_ret_th = 0.0005349210096755676;
lost_ratio_sales_ret_w = 14;
lost_ratio_sales_dis_th = 0.0004830190736599953;
lost_ratio_sales_dis_w = 83;
lost_ratio_sales_fac_th = 0.00016152482422651537;
lost_ratio_sales_fac_w = 78;
stock_customer_MA_mean_relative_th = 0.12373473649838496;
stock_customer_MA_mean_relative_w = 12;
stock_distributor_MA_mean_relative_th = 0.9149363935307996;
stock_distributor_MA_mean_relative_w = 15;
stock_retailer_MA_mean_relative_th = 0.3121462845181129;
stock_retailer_MA_mean_relative_w = 25;
stock_factory_MA_mean_relative_th = 0.8871130833426919;
stock_factory_MA_mean_relative_w = 28;
